\ Model prob_17
\ LP format - for model browsing. Use MPS format to capture full model detail.
Minimize
  6 Steak + Apples + Eggs + 3 Chicken + Tofu
Subject To
 R0: Steak + 7 Apples + 6 Eggs + 20 Chicken + 8 Tofu >= 87
 R1: 3 Steak + 22 Apples + 18 Eggs + 6 Chicken + 4 Tofu >= 135
 R2: 210 Steak + 96 Apples + 189 Eggs + 132 Chicken + 75 Tofu >= 1926
Bounds
Generals
 Steak Apples Eggs Chicken Tofu
End
